\ Model facility
\ LP format - for model browsing. Use MPS format to capture full model detail.
Minimize
  8600 X[0] + 10587 X[1] + 8575 X[2] + 4663 X[3] + 10088 X[4] + 3552 y[0,0]
   + 3569 y[0,1] + 3988 y[0,2] + 2973 y[0,3] + 766 y[1,0] + 1945 y[1,1]
   + 2132 y[1,2] + 1603 y[1,3] + 714 y[2,0] + 3244 y[2,1] + 378 y[2,2]
   + 3004 y[2,3] + 163 y[3,0] + 1666 y[3,1] + 3565 y[3,2] + 4231 y[3,3]
   + 611 y[4,0] + 1934 y[4,1] + 3129 y[4,2] + 3389 y[4,3]
Subject To
 Capacity[0]: - 74 X[0] + 6 y[0,0] + 2 y[0,1] + 16 y[0,2] + 17 y[0,3] <= 0
 Capacity[1]: - 45 X[1] + 6 y[1,0] + 2 y[1,1] + 16 y[1,2] + 17 y[1,3] <= 0
 Capacity[2]: - 188 X[2] + 6 y[2,0] + 2 y[2,1] + 16 y[2,2] + 17 y[2,3]
   <= 0
 Capacity[3]: - 20 X[3] + 6 y[3,0] + 2 y[3,1] + 16 y[3,2] + 17 y[3,3] <= 0
 Capacity[4]: - 164 X[4] + 6 y[4,0] + 2 y[4,1] + 16 y[4,2] + 17 y[4,3]
   <= 0
 Demand[0]: y[0,0] + y[1,0] + y[2,0] + y[3,0] + y[4,0] = 1
 Demand[1]: y[0,1] + y[1,1] + y[2,1] + y[3,1] + y[4,1] = 1
 Demand[2]: y[0,2] + y[1,2] + y[2,2] + y[3,2] + y[4,2] = 1
 Demand[3]: y[0,3] + y[1,3] + y[2,3] + y[3,3] + y[4,3] = 1
Bounds
Binaries
 X[0] X[1] X[2] X[3] X[4] y[0,0] y[0,1] y[0,2] y[0,3] y[1,0] y[1,1] y[1,2]
 y[1,3] y[2,0] y[2,1] y[2,2] y[2,3] y[3,0] y[3,1] y[3,2] y[3,3] y[4,0]
 y[4,1] y[4,2] y[4,3]
End
